100
32
2
26
21
14
27
27
6
11
26
24
14
11
10
15
10
2
16
16
1
1
2
1
1
1
2
4
1
3
3
2
1
18
17
6
1
1
3
1
1
1
1
1
3
1
1
18
1
18
4
3
1
1
2
1
2
1
2
1
1
1
1
1
1
4
19
1
1
1
1
3
2
2
2
1
1
19
1
2
1
5
2
2
18
1
1
17
3
1
2
3
3
3
2
1
1
1
1
1
2
1